Gurobi Optimizer version 9.1.0 build v9.1.0rc0 (linux64)
Thread count: 8 physical cores, 16 logical processors, using up to 16 threads
Optimize a model with 156424 rows, 151200 columns and 877950 nonzeros
Model fingerprint: 0xf530c884
Variable types: 0 continuous, 151200 integer (151200 binary)
Coefficient statistics:
  Matrix range     [1e+00, 1e+00]
  Objective range  [1e+01, 3e+04]
  Bounds range     [1e+00, 1e+00]
  RHS range        [1e+00, 2e+02]
Presolve added 0 rows and 2450 columns
Presolve removed 50 rows and 0 columns
Presolve time: 3.63s
Presolved: 156374 rows, 153650 columns, 635350 nonzeros
Variable types: 0 continuous, 153650 integer (153650 binary)
Found heuristic solution: objective 291422.00000

Concurrent LP optimizer: primal simplex, dual simplex, and barrier
Showing barrier log only...

Root barrier log...

Ordering time: 0.64s

Barrier statistics:
 Dense cols : 600
 AA' NZ     : 4.894e+05
 Factor NZ  : 2.609e+06 (roughly 150 MBytes of memory)
 Factor Ops : 1.141e+09 (less than 1 second per iteration)
 Threads    : 6

                  Objective                Residual
Iter       Primal          Dual         Primal    Dual     Compl     Time
   0   1.17386815e+08 -1.75766784e+08  3.25e+02 3.02e+01  8.81e+03     7s
   1   8.50289891e+05 -1.68999136e+08  1.57e+00 3.51e+02  4.05e+02     7s
   2   3.79111903e+05 -6.21221159e+07  2.15e-01 1.21e+02  1.38e+02     7s
   3   3.54682635e+05 -2.64161943e+07  1.41e-01 5.01e+01  5.89e+01     8s
   4   3.04471971e+05 -1.61758226e+05  1.06e-03 2.50e+00  1.01e+00     8s
   5   2.92353886e+05 -1.03017809e+04  8.08e-04 1.59e+00  6.57e-01     9s
   6   2.84337678e+05  1.11034575e+05  6.86e-04 7.67e-01  3.76e-01     9s
   7   2.74121339e+05  1.52657249e+05  5.66e-04 4.27e-01  2.63e-01    10s
   8   2.66120303e+05  1.74780764e+05  4.64e-04 2.60e-01  1.98e-01    10s
   9   2.51144974e+05  1.92020765e+05  2.97e-04 1.42e-01  1.28e-01    11s
  10   2.44159438e+05  2.01193870e+05  2.30e-04 8.54e-02  9.32e-02    11s
  11   2.40346567e+05  2.06485474e+05  1.97e-04 5.69e-02  7.34e-02    11s
  12   2.38868290e+05  2.08542166e+05  1.84e-04 4.55e-02  6.58e-02    12s
  13   2.34746713e+05  2.10384190e+05  1.47e-04 3.57e-02  5.28e-02    12s
  14   2.30936012e+05  2.12347482e+05  1.15e-04 2.51e-02  4.03e-02    12s
  15   2.27698838e+05  2.13401508e+05  8.79e-05 1.99e-02  3.10e-02    13s
  16   2.26066455e+05  2.14668783e+05  7.49e-05 1.35e-02  2.47e-02    14s
  17   2.24643120e+05  2.15267102e+05  6.26e-05 1.05e-02  2.03e-02    14s
  18   2.23674087e+05  2.15779335e+05  5.45e-05 7.98e-03  1.71e-02    14s
  19   2.21987893e+05  2.16157707e+05  4.01e-05 6.23e-03  1.26e-02    15s
  20   2.21162826e+05  2.16400846e+05  3.36e-05 5.05e-03  1.03e-02    15s
  21   2.20436266e+05  2.16671429e+05  2.74e-05 3.77e-03  8.16e-03    16s
  22   2.20002239e+05  2.16783368e+05  2.32e-05 3.24e-03  6.98e-03    16s
  23   2.19390569e+05  2.16937043e+05  1.79e-05 2.54e-03  5.32e-03    17s
  24   2.19015297e+05  2.17051799e+05  1.45e-05 2.01e-03  4.26e-03    17s
  25   2.18800283e+05  2.17135401e+05  1.25e-05 1.63e-03  3.61e-03    18s
  26   2.18534252e+05  2.17190185e+05  1.01e-05 1.40e-03  2.91e-03    18s
  27   2.18340537e+05  2.17250667e+05  8.21e-06 1.14e-03  2.36e-03    19s
  28   2.18207507e+05  2.17331364e+05  6.89e-06 7.98e-04  1.90e-03    19s
  29   2.18149231e+05  2.17358913e+05  6.37e-06 6.76e-04  1.71e-03    19s
  30   2.17991666e+05  2.17382249e+05  4.87e-06 5.68e-04  1.32e-03    20s
  31   2.17922995e+05  2.17401646e+05  4.15e-06 4.84e-04  1.13e-03    20s
  32   2.17859357e+05  2.17422364e+05  3.50e-06 3.93e-04  9.47e-04    21s
  33   2.17791721e+05  2.17441756e+05  2.83e-06 3.10e-04  7.59e-04    21s
  34   2.17743419e+05  2.17457432e+05  2.33e-06 2.46e-04  6.20e-04    22s
  35   2.17684373e+05  2.17467201e+05  1.75e-06 2.07e-04  4.71e-04    22s
  36   2.17655113e+05  2.17477644e+05  1.45e-06 1.65e-04  3.85e-04    23s
  37   2.17622416e+05  2.17484737e+05  1.12e-06 1.36e-04  2.98e-04    23s
  38   2.17595805e+05  2.17491876e+05  8.38e-07 1.08e-04  2.25e-04    23s
  39   2.17580326e+05  2.17497643e+05  6.64e-07 8.56e-05  1.79e-04    24s
  40   2.17568570e+05  2.17502262e+05  5.35e-07 6.77e-05  1.44e-04    24s
  41   2.17558963e+05  2.17504777e+05  4.25e-07 5.73e-05  1.17e-04    25s
  42   2.17549809e+05  2.17508597e+05  3.21e-07 4.29e-05  8.93e-05    25s
  43   2.17543175e+05  2.17511911e+05  2.49e-07 3.05e-05  6.78e-05    26s
  44   2.17538233e+05  2.17513319e+05  1.95e-07 2.54e-05  5.40e-05    26s
  45   2.17534546e+05  2.17515080e+05  1.55e-07 1.91e-05  4.22e-05    27s
  46   2.17530842e+05  2.17516067e+05  1.14e-07 1.57e-05  3.20e-05    27s
  47   2.17529240e+05  2.17517057e+05  9.60e-08 1.22e-05  2.64e-05    27s
  48   2.17527265e+05  2.17517774e+05  7.38e-08 9.70e-06  2.06e-05    28s
  49   2.17526027e+05  2.17518348e+05  5.95e-08 7.85e-06  1.66e-05    28s
  50   2.17525225e+05  2.17518550e+05  5.05e-08 7.16e-06  1.45e-05    29s
  51   2.17524358e+05  2.17518954e+05  4.05e-08 5.81e-06  1.17e-05    29s
  52   2.17523769e+05  2.17519242e+05  3.37e-08 4.79e-06  9.81e-06    29s
  53   2.17523641e+05  2.17519273e+05  3.23e-08 4.68e-06  9.47e-06    30s
  54   2.17523032e+05  2.17519584e+05  2.53e-08 3.71e-06  7.47e-06    30s
  55   2.17522256e+05  2.17519864e+05  1.67e-08 2.80e-06  5.19e-06    31s
  56   2.17521906e+05  2.17520163e+05  1.27e-08 1.83e-06  3.78e-06    31s
  57   2.17521809e+05  2.17520204e+05  1.16e-08 1.71e-06  3.48e-06    32s
  58   2.17521612e+05  2.17520319e+05  9.38e-09 1.35e-06  2.80e-06    32s
  59   2.17521405e+05  2.17520418e+05  7.00e-09 1.04e-06  2.14e-06    32s
  60   2.17521243e+05  2.17520486e+05  5.18e-09 8.27e-07  1.64e-06    33s
  61   2.17521048e+05  2.17520609e+05  2.99e-09 4.35e-07  9.51e-07    33s
  62   2.17520868e+05  2.17520685e+05  1.05e-09 2.26e-07  3.98e-07    34s
  63   2.17520819e+05  2.17520756e+05  5.22e-10 3.11e-08  1.38e-07    34s
  64   2.17520769e+05  2.17520764e+05  1.96e-11 3.77e-09  1.08e-08    34s
  65   2.17520768e+05  2.17520764e+05  9.12e-09 1.77e-08  1.04e-08    35s
  66   2.17520768e+05  2.17520764e+05  9.05e-09 1.62e-08  1.03e-08    35s
  67   2.17520768e+05  2.17520764e+05  9.05e-09 1.62e-08  1.03e-08    35s

Barrier solved model in 67 iterations and 35.15 seconds
Optimal objective 2.17520768e+05


Root crossover log...

   55957 DPushes remaining with DInf 0.0000000e+00                35s
       0 DPushes remaining with DInf 0.0000000e+00                38s

    1029 PPushes remaining with PInf 2.1479428e-06                38s
       0 PPushes remaining with PInf 0.0000000e+00                38s

  Push phase complete: Pinf 0.0000000e+00, Dinf 1.8608226e-09     38s


Root simplex log...

Iteration    Objective       Primal Inf.    Dual Inf.      Time
   10906    2.1752077e+05   0.000000e+00   0.000000e+00     38s
   10906    2.1752077e+05   0.000000e+00   0.000000e+00     38s

Solved with barrier

Root relaxation: objective 2.175208e+05, 10906 iterations, 33.47 seconds

    Nodes    |    Current Node    |     Objective Bounds      |     Work
 Expl Unexpl |  Obj  Depth IntInf | Incumbent    BestBd   Gap | It/Node Time

     0     0 217520.766    0 14994 291422.000 217520.766  25.4%     -   40s
H    0     0                    229849.00000 217520.766  5.36%     -   41s
H    0     0                    229820.00000 217520.766  5.35%     -   41s
H    0     0                    229676.00000 217520.766  5.29%     -   42s
     0     0 217520.766    0 14994 229676.000 217520.766  5.29%     -   58s
H    0     0                    229575.00000 217520.766  5.25%     -  108s
H    0     2                    229406.00000 217520.766  5.18%     -  115s
     0     2 217520.766    0 14990 229406.000 217520.766  5.18%     -  115s
     1     3 217598.781    1 15556 229406.000 217520.904  5.18% 20006  300s

Explored 2 nodes (34051 simplex iterations) in 300.05 seconds
Thread count was 16 (of 16 available processors)

Solution count 6: 229406 229575 229676 ... 291422

Time limit reached
Best objective 2.294060000000e+05, best bound 2.175210000000e+05, gap 5.1808%

User-callback calls 111477, time in user-callback 1.23 sec
Result: runtime=300.01sec; objective=229406; gap=5.1808%
Solution written to /autofs/unityaccount/cremi/mdeboute/Bureau/multi-period-flp/solution//instSingle_I50_J250_T12_0_result.txt
